data;

param num_top:=5;

#nodes and edges of the physical network
param n := 10;

set E := (1,2) (1,3) (1,7) (2,4) (2,7) (3,5) (4,8) (5,6) (5,7) (6,7) (6,9) (7,8) (7,9) (8,10) (9,10) ;

#nodes and edges of the virtual networks
set Nl[1] := 6 2 1 5 ;
set Nl[2] := 8 3 6 7 ;
set Nl[3] := 9 8 4 5 1 ;
set Nl[4] := 6 4 1 9 2 ;
set Nl[5] := 9 6 4 5 ;

set El[1] := (2,6) (1,2) (1,5) (5,6) ;
set El[2] := (3,8) (3,6) (6,7) (7,8) (6,8) (3,7) ;
set El[3] := (8,9) (4,8) (4,5) (1,5) (1,9) ;
set El[4] := (4,6) (1,4) (1,9) (2,9) (2,6) (1,2) (2,4) (4,9) (6,9) (1,6) ;
set El[5] := (6,9) (4,6) (4,5) (5,9) (5,6) (4,9) ;
